Minimize
  - 4 y_0 - 7 y_1 - 7 y_2 - 10 y_3 - 9 y_4 - 11 y_5 - 10 y_6 - 12 y_7 - y_8
   - 12 y_9 - y_10 - 12 y_11 - 10 y_12 - 4 y_14 - 7 y_15 - 13 y_16
   - 13 y_17 - 16 y_18 - 14 y_19 + 43 x_0_2 + 41 x_0_5 + 26 x_0_12
   + 61 x_0_16 + 42 x_0_17 + 65 x_0_18 + 52 x_0_19 + 68 x_1_3 + 27 x_1_4
   + 50 x_1_5 + 69 x_1_6 + 38 x_1_7 + 45 x_1_9 + 72 x_1_11 + 28 x_1_13
   + 43 x_1_14 + 46 x_1_15 + 45 x_1_17 + 62 x_1_19 + 65 x_2_4 + 72 x_2_5
   + 43 x_2_6 + 25 x_2_8 + 78 x_2_9 + 27 x_2_10 + 64 x_2_11 + 29 x_2_13
   + 87 x_2_18 + 50 x_3_5 + 71 x_3_7 + 42 x_3_10 + 19 x_3_11 + 51 x_3_15
   + 12 x_3_16 + 52 x_3_19 + 26 x_4_5 + 67 x_4_6 + 18 x_4_9 + 39 x_4_10
   + 59 x_4_11 + 63 x_4_15 + 66 x_4_16 + 18 x_4_17 + 53 x_4_18 + 37 x_4_19
   + 58 x_5_6 + 27 x_5_7 + 50 x_5_8 + 15 x_5_9 + 47 x_5_10 + 24 x_5_17
   + 27 x_5_18 + 81 x_6_12 + 59 x_6_18 + 13 x_7_9 + 51 x_7_10 + 73 x_7_16
   + 52 x_7_18 + 36 x_7_19 + 53 x_8_9 + 2 x_8_10 + 53 x_8_11 + 23 x_8_15
   + 53 x_8_16 + 69 x_8_18 + 59 x_8_19 + 51 x_9_10 + 40 x_9_12 + 49 x_9_13
   + 76 x_9_15 + 10 x_9_17 + 23 x_9_19 + 43 x_10_12 + 15 x_10_14
   + 52 x_10_16 + 56 x_10_17 + 67 x_10_18 + 57 x_10_19 + 40 x_11_14
   + 66 x_11_15 + 10 x_11_16 + 32 x_11_18 + 56 x_12_14 + 62 x_12_15
   + 76 x_12_18 + 15 x_13_14 + 27 x_13_15 + 54 x_13_17 + 27 x_14_15
   + 38 x_14_16 + 27 x_15_13 + 62 x_15_16 + 43 x_16_18 + 48 x_16_19
   + 16 x_18_19 + 16 x_18_19 + 16 x_18_19 + 16 x_18_19 + 16 x_18_19
   + 16 x_18_19 + 16 x_18_19 + 16 x_18_19 + 16 x_18_19 + 16 x_18_19
   + 16 x_18_19 + 16 x_18_19 + 16 x_18_19 + 16 x_18_19 + 16 x_18_19
   + 16 x_18_19 + 16 x_18_19 + 16 x_18_19 + 16 x_18_19 + 16 x_18_19
   + 16 x_18_19 + 16 x_18_19 + 16 x_18_19 + 16 x_18_19 + 16 x_18_19
   + 16 x_18_19 + 16 x_18_19 + 16 x_18_19 + 16 x_18_19 + 16 x_18_19
   + 16 x_18_19 + 16 x_18_19 + 16 x_18_19 + 16 x_18_19 + 16 x_18_19
   + 16 x_18_19 + 16 x_18_19 + 16 x_18_19 + 16 x_18_19 + 16 x_18_19
   + 16 x_18_19 + 16 x_18_19 + 16 x_18_19 + 16 x_18_19 + 16 x_18_19
   + 16 x_18_19 + 16 x_18_19 + 16 x_18_19 + 16 x_18_19 + 16 x_18_19
   + 16 x_18_19 + 16 x_18_19 + 16 x_18_19 + 16 x_18_19 + 16 x_18_19
   + 16 x_18_19 + 16 x_18_19 + 16 x_18_19 + 16 x_18_19 + 16 x_18_19
   + 16 x_18_19 + 16 x_18_19 + 16 x_18_19 + 16 x_18_19 + 16 x_18_19
   + 16 x_18_19 + 16 x_18_19 + 16 x_18_19 + 16 x_18_19 + 16 x_18_19
   + 16 x_18_19 + 16 x_18_19 + 16 x_18_19 + 16 x_18_19 + 16 x_18_19
   + 16 x_18_19 + 16 x_18_19 + 16 x_18_19 + 16 x_18_19 + 16 x_18_19
   + 16 x_18_19 + 16 x_18_19 + 16 x_18_19 + 16 x_18_19 + 16 x_18_19
   + 16 x_18_19 + 16 x_18_19 + 16 x_18_19 + 16 x_18_19 + 16 x_18_19
   + 16 x_18_19 + 16 x_18_19 + 16 x_18_19 + 16 x_18_19 + 16 x_18_19
   + 16 x_18_19 + 16 x_18_19 + 16 x_18_19 + 16 x_18_19 + 16 x_18_19
   + 16 x_18_19 + 16 x_18_19 + 16 x_18_19 + 16 x_18_19 + 16 x_18_19
   + 16 x_18_19 + 16 x_18_19 + 16 x_18_19 + 16 x_18_19 + 16 x_18_19
   + 16 x_18_19 + 16 x_18_19 + 16 x_18_19 + 16 x_18_19 + 16 x_18_19
   + 16 x_18_19 + 16 x_18_19 + 16 x_18_19 + 16 x_18_19 + 16 x_18_19
   + 16 x_18_19 + 16 x_18_19 + 16 x_18_19 + 16 x_18_19 + 16 x_18_19
   + 16 x_18_19 + 16 x_18_19 + 16 x_18_19 + 16 x_18_19 + 16 x_18_19
   + 16 x_18_19 + 16 x_18_19 + 16 x_18_19 + 16 x_18_19 + 16 x_18_19
   + 16 x_18_19 + 16 x_18_19 + 16 x_18_19 + 16 x_18_19 + 16 x_18_19
   + 16 x_18_19 + 16 x_18_19 + 16 x_18_19 + 16 x_18_19 + 16 x_18_19
   + 16 x_18_19 + 16 x_18_19 + 16 x_18_19 + 16 x_18_19 + 16 x_18_19
   + 16 x_18_19 + 16 x_18_19 + 16 x_18_19 + 16 x_18_19 + 16 x_18_19
   + 16 x_18_19 + 16 x_18_19 + 16 x_18_19 + 16 x_18_19 + 16 x_18_19
   + 16 x_18_19 + 16 x_18_19 + 16 x_18_19 + 16 x_18_19 + 16 x_18_19
   + 16 x_18_19 + 16 x_18_19 + 16 x_18_19 + 16 x_18_19 + 16 x_18_19
   + 16 x_18_19 + 16 x_18_19 + 16 x_18_19 + 16 x_18_19 + 16 x_18_19
   + 16 x_18_19 + 16 x_18_19 + 16 x_18_19 + 16 x_18_19 + 16 x_18_19
   + 16 x_18_19 + 16 x_18_19 + 16 x_18_19 + 16 x_18_19 + 16 x_18_19
   + 16 x_18_19 + 16 x_18_19 + 16 x_18_19 + 16 x_18_19 + 16 x_18_19
   + 16 x_18_19 + 16 x_18_19 + 16 x_18_19 + 16 x_18_19 + 16 x_18_19
   + 16 x_18_19 + 16 x_18_19 + 16 x_18_19 + 16 x_18_19 + 16 x_18_19
   + 16 x_18_19 + 16 x_18_19 + 16 x_18_19 + 16 x_18_19 + 16 x_18_19
   + 16 x_18_19 + 16 x_18_19 + 16 x_18_19 + 16 x_18_19 + 16 x_18_19
   + 16 x_18_19 + 16 x_18_19 + 16 x_18_19 + 16 x_18_19 + 16 x_18_19
   + 16 x_18_19 + 16 x_18_19 + 16 x_18_19 + 16 x_18_19 + 16 x_18_19
   + 16 x_18_19 + 16 x_18_19 + 16 x_18_19 + 16 x_18_19 + 16 x_18_19
   + 16 x_18_19 + 16 x_18_19 + 16 x_18_19 + 16 x_18_19 + 16 x_18_19
   + 16 x_18_19 + 16 x_18_19 + 16 x_18_19 + 16 x_18_19 + 16 x_18_19
   + 16 x_18_19 + 16 x_18_19 + 16 x_18_19 + 16 x_18_19 + 16 x_18_19
   + 16 x_18_19 + 16 x_18_19 + 16 x_18_19 + 16 x_18_19 + 16 x_18_19
   + 16 x_18_19 + 16 x_18_19 + 16 x_18_19 + 16 x_18_19 + 16 x_18_19
   + 16 x_18_19 + 16 x_18_19 + 16 x_18_19 + 16 x_18_19 + 16 x_18_19
   + 16 x_18_19 + 16 x_18_19 + 16 x_18_19 + 16 x_18_19 + 16 x_18_19
   + 16 x_18_19 + 16 x_18_19 + 16 x_18_19 + 16 x_18_19 + 16 x_18_19
   + 16 x_18_19 + 16 x_18_19 + 16 x_18_19 + 16 x_18_19 + 16 x_18_19
   + 16 x_18_19 + 16 x_18_19 + 16 x_18_19 + 16 x_18_19 + 16 x_18_19
   + 16 x_18_19 + 16 x_18_19 + 16 x_18_19 + 16 x_18_19 + 16 x_18_19
   + 16 x_18_19 + 16 x_18_19 + 16 x_18_19 + 16 x_18_19 + 16 x_18_19
   + 16 x_18_19 + 16 x_18_19 + 16 x_18_19 + 16 x_18_19 + 16 x_18_19
   + 16 x_18_19 + 16 x_18_19 + 16 x_18_19 + 16 x_18_19 + 16 x_18_19
   + 16 x_18_19 + 16 x_18_19 + 16 x_18_19 + 16 x_18_19 + 16 x_18_19
   + 16 x_18_19 + 16 x_18_19 + 16 x_18_19 + 16 x_18_19 + 16 x_18_19
   + 16 x_18_19 + 16 x_18_19 + 16 x_18_19 + 16 x_18_19 + 16 x_18_19
   + 16 x_18_19 + 16 x_18_19 + 16 x_18_19 + 16 x_18_19 + 16 x_18_19
   + 16 x_18_19 + 16 x_18_19 + 16 x_18_19 + 16 x_18_19 + 16 x_18_19
   + 16 x_18_19 + 16 x_18_19 + 16 x_18_19 + 16 x_18_19 + 16 x_18_19
   + 16 x_18_19 + 16 x_18_19 + 16 x_18_19 + 16 x_18_19 + 16 x_18_19
   + 16 x_18_19 + 16 x_18_19 + 16 x_18_19 + 16 x_18_19 + 16 x_18_19
   + 16 x_18_19 + 16 x_18_19 + 16 x_18_19 + 16 x_18_19 + 16 x_18_19
   + 16 x_18_19 + 16 x_18_19 + 16 x_18_19 + 16 x_18_19 + 16 x_18_19
   + 16 x_18_19 + 16 x_18_19 + 16 x_18_19 + 16 x_18_19 + 16 x_18_19
   + 16 x_18_19 + 16 x_18_19 + 16 x_18_19 + 16 x_18_19 + 16 x_18_19
   + 16 x_18_19 + 16 x_18_19 + 16 x_18_19 + 16 x_18_19 + 16 x_18_19
   + 16 x_18_19 + 16 x_18_19 + 16 x_18_19 + 16 x_18_19 + 16 x_18_19
   + 16 x_18_19 + 16 x_18_19 + 16 x_18_19 + 16 x_18_19 + 16 x_18_19
   + 16 x_18_19 + 16 x_18_19 + 16 x_18_19 + 16 x_18_19 + 16 x_18_19
   + 16 x_18_19 + 16 x_18_19 + 16 x_18_19 + 16 x_18_19 + 16 x_18_19
   + 16 x_18_19 + 16 x_18_19 + 16 x_18_19 + 16 x_18_19 + 16 x_18_19
   + 16 x_18_19 + 16 x_18_19 + 16 x_18_19 + 16 x_18_19 + 16 x_18_19
   + 16 x_18_19 + 16 x_18_19 + 16 x_18_19 + 16 x_18_19 + 16 x_18_19
   + 16 x_18_19 + 16 x_18_19 + 16 x_18_19 + 16 x_18_19 + 16 x_18_19
   + 16 x_18_19 + 16 x_18_19 + 16 x_18_19 + 16 x_18_19 + 16 x_18_19
   + 16 x_18_19 + 16 x_18_19 + 16 x_18_19 + 16 x_18_19 + 16 x_18_19
   + 16 x_18_19 + 16 x_18_19 + 16 x_18_19 + 16 x_18_19 + 16 x_18_19
   + 16 x_18_19 + 16 x_18_19 + 16 x_18_19 + 16 x_18_19 + 16 x_18_19
   + 16 x_18_19 + 16 x_18_19 + 16 x_18_19 + 16 x_18_19 + 16 x_18_19
   + 16 x_18_19 + 16 x_18_19 + 16 x_18_19 + 16 x_18_19 + 16 x_18_19
   + 16 x_18_19 + 16 x_18_19 + 16 x_18_19 + 16 x_18_19 + 16 x_18_19
   + 16 x_18_19 + 16 x_18_19 + 16 x_18_19 + 16 x_18_19 + 16 x_18_19
   + 16 x_18_19 + 16 x_18_19 + 16 x_18_19 + 16 x_18_19 + 16 x_18_19
   + 16 x_18_19 + 16 x_18_19 + 16 x_18_19 + 16 x_18_19 + 16 x_18_19
   + 16 x_18_19 + 16 x_18_19 + 16 x_18_19 + 16 x_18_19 + 16 x_18_19
   + 16 x_18_19 + 16 x_18_19 + 16 x_18_19 + 16 x_18_19 + 16 x_18_19
   + 16 x_18_19 + 16 x_18_19 + 16 x_18_19 + 16 x_18_19 + 16 x_18_19
   + 16 x_18_19 + 16 x_18_19 + 16 x_18_19 + 16 x_18_19 + 16 x_18_19
   + 16 x_18_19 + 16 x_18_19 + 16 x_18_19 + 16 x_18_19 + 16 x_18_19
   + 16 x_18_19 + 16 x_18_19 + 16 x_18_19 + 16 x_18_19 + 16 x_18_19
   + 16 x_18_19 + 16 x_18_19 + 16 x_18_19 + 16 x_18_19 + 16 x_18_19
   + 16 x_18_19 + 16 x_18_19 + 16 x_18_19 + 16 x_18_19 + 16 x_18_19
   + 16 x_18_19 + 16 x_18_19 + 16 x_18_19 + 16 x_18_19 + 16 x_18_19
   + 16 x_18_19 + 16 x_18_19 + 16 x_18_19 + 16 x_18_19 + 16 x_18_19
   + 16 x_18_19 + 16 x_18_19 + 16 x_18_19 + 16 x_18_19 + 16 x_18_19
   + 16 x_18_19 + 16 x_18_19 + 16 x_18_19 + 16 x_18_19 + 16 x_18_19
   + 16 x_18_19 + 16 x_18_19 + 16 x_18_19 + 16 x_18_19 + 16 x_18_19
   + 16 x_18_19 + 16 x_18_19 + 16 x_18_19 + 16 x_18_19 + 16 x_18_19
   + 16 x_18_19 + 16 x_18_19 + 16 x_18_19 + 16 x_18_19 + 16 x_18_19
   + 16 x_18_19 + 16 x_18_19 + 16 x_18_19 + 16 x_18_19 + 16 x_18_19
   + 16 x_18_19 + 16 x_18_19 + 16 x_18_19 + 16 x_18_19 + 16 x_18_19
   + 16 x_18_19 + 16 x_18_19 + 16 x_18_19 + 16 x_18_19 + 16 x_18_19
   + 16 x_18_19 + 16 x_18_19 + 16 x_18_19 + 16 x_18_19 + 16 x_18_19
   + 16 x_18_19 + 16 x_18_19 + 16 x_18_19 + 16 x_18_19 + 16 x_18_19
   + 16 x_18_19 + 16 x_18_19 + 16 x_18_19 + 16 x_18_19 + 16 x_18_19
   + 16 x_18_19 + 16 x_18_19 + 16 x_18_19 + 16 x_18_19 + 16 x_18_19
   + 16 x_18_19 + 16 x_18_19 + 16 x_18_19 + 16 x_18_19 + 16 x_18_19
   + 16 x_18_19 + 16 x_18_19 + 16 x_18_19 + 16 x_18_19 + 16 x_18_19
   + 16 x_18_19 + 16 x_18_19 + 16 x_18_19 + 16 x_18_19 + 16 x_18_19
   + 16 x_18_19 + 16 x_18_19 + 16 x_18_19 + 16 x_18_19 + 16 x_18_19
   + 16 x_18_19 + 16 x_18_19 + 16 x_18_19 + 16 x_18_19 + 16 x_18_19
   + 16 x_18_19 + 16 x_18_19 + 16 x_18_19 + 16 x_18_19 + 16 x_18_19
   + 16 x_18_19 + 16 x_18_19 + 16 x_18_19 + 16 x_18_19 + 16 x_18_19
   + 16 x_18_19 + 16 x_18_19 + 16 x_18_19 + 16 x_18_19 + 16 x_18_19
   + 16 x_18_19 + 16 x_18_19 + 16 x_18_19 + 16 x_18_19 + 16 x_18_19
   + 16 x_18_19 + 16 x_18_19 + 16 x_18_19 + 16 x_18_19 + 16 x_18_19
   + 16 x_18_19 + 16 x_18_19 + 16 x_18_19 + 16 x_18_19 + 16 x_18_19
   + 16 x_18_19 + 16 x_18_19 + 16 x_18_19 + 16 x_18_19 + 16 x_18_19
   + 16 x_18_19 + 16 x_18_19 + 16 x_18_19 + 16 x_18_19 + 16 x_18_19
   + 16 x_18_19 + 16 x_18_19 + 16 x_18_19 + 16 x_18_19 + 16 x_18_19
   + 16 x_18_19 + 16 x_18_19 + 16 x_18_19 + 16 x_18_19 + 16 x_18_19
   + 16 x_18_19 + 16 x_18_19 + 16 x_18_19 + 16 x_18_19 + 16 x_18_19
   + 16 x_18_19 + 16 x_18_19 + 16 x_18_19 + 16 x_18_19 + 16 x_18_19
   + 16 x_18_19 + 16 x_18_19 + 16 x_18_19 + 16 x_18_19 + 16 x_18_19
   + 16 x_18_19 + 16 x_18_19 + 16 x_18_19 + 16 x_18_19 + 16 x_18_19
   + 16 x_18_19 + 16 x_18_19 + 16 x_18_19 + 16 x_18_19 + 16 x_18_19
   + 16 x_18_19 + 16 x_18_19 + 16 x_18_19 + 16 x_18_19 + 16 x_18_19
   + 16 x_18_19 + 16 x_18_19 + 16 x_18_19 + 16 x_18_19 + 16 x_18_19
   + 16 x_18_19 + 16 x_18_19 + 16 x_18_19 + 16 x_18_19 + 16 x_18_19
   + 16 x_18_19 + 16 x_18_19 + 16 x_18_19 + 16 x_18_19 + 16 x_18_19
   + 16 x_18_19 + 16 x_18_19 + 16 x_18_19 + 16 x_18_19 + 16 x_18_19
   + 16 x_18_19 + 16 x_18_19 + 16 x_18_19 + 16 x_18_19 + 16 x_18_19
   + 16 x_18_19 + 16 x_18_19 + 16 x_18_19 + 16 x_18_19 + 16 x_18_19
   + 16 x_18_19 + 16 x_18_19 + 16 x_18_19 + 16 x_18_19 + 16 x_18_19
   + 16 x_18_19 + 16 x_18_19 + 16 x_18_19 + 16 x_18_19 + 16 x_18_19
   + 16 x_18_19 + 16 x_18_19 + 16 x_18_19 + 16 x_18_19 + 16 x_18_19
   + 16 x_18_19 + 16 x_18_19 + 16 x_18_19 + 16 x_18_19 + 16 x_18_19
   + 16 x_18_19 + 16 x_18_19 + 16 x_18_19 + 16 x_18_19 + 16 x_18_19
   + 16 x_18_19 + 16 x_18_19 + 16 x_18_19 + 16 x_18_19 + 16 x_18_19
   + 16 x_18_19 + 16 x_18_19 + 16 x_18_19 + 16 x_18_19 + 16 x_18_19
   + 16 x_18_19 + 16 x_18_19 + 16 x_18_19 + 16 x_18_19 + 16 x_18_19
   + 16 x_18_19 + 16 x_18_19 + 16 x_18_19 + 16 x_18_19 + 16 x_18_19
   + 16 x_18_19 + 16 x_18_19 + 16 x_18_19 + 16 x_18_19 + 16 x_18_19
   + 16 x_18_19 + 16 x_18_19 + 16 x_18_19 + 16 x_18_19 + 16 x_18_19
   + 16 x_18_19 + 16 x_18_19 + 16 x_18_19 + 16 x_18_19 + 16 x_18_19
   + 16 x_18_19 + 16 x_18_19 + 16 x_18_19 + 16 x_18_19 + 16 x_18_19
   + 16 x_18_19 + 16 x_18_19 + 16 x_18_19 + 16 x_18_19 + 16 x_18_19
   + 16 x_18_19 + 16 x_18_19 + 16 x_18_19 + 16 x_18_19 + 16 x_18_19
   + 16 x_18_19 + 16 x_18_19 + 16 x_18_19 + 16 x_18_19 + 16 x_18_19
   + 16 x_18_19 + 16 x_18_19 + 16 x_18_19 + 16 x_18_19 + 16 x_18_19
   + 16 x_18_19 + 16 x_18_19 + 16 x_18_19 + 16 x_18_19 + 16 x_18_19
   + 16 x_18_19 + 16 x_18_19 + 16 x_18_19 + 16 x_18_19 + 16 x_18_19
   + 16 x_18_19 + 16 x_18_19 + 16 x_18_19 + 16 x_18_19 + 16 x_18_19
   + 16 x_18_19 + 16 x_18_19 + 16 x_18_19 + 16 x_18_19 + 16 x_18_19
   + 16 x_18_19 + 16 x_18_19 + 16 x_18_19 + 16 x_18_19 + 16 x_18_19
   + 16 x_18_19 + 16 x_18_19 + 16 x_18_19 + 16 x_18_19 + 16 x_18_19
   + 16 x_18_19 + 16 x_18_19 + 16 x_18_19 + 16 x_18_19 + 16 x_18_19
   + 16 x_18_19 + 16 x_18_19 + 16 x_18_19 + 16 x_18_19 + 16 x_18_19
   + 16 x_18_19 + 16 x_18_19 + 16 x_18_19 + 16 x_18_19 + 16 x_18_19
   + 16 x_18_19 + 16 x_18_19 + 16 x_18_19 + 16 x_18_19 + 16 x_18_19
   + 16 x_18_19 + 16 x_18_19 + 16 x_18_19 + 16 x_18_19 + 16 x_18_19
   + 16 x_18_19 + 16 x_18_19 + 16 x_18_19 + 16 x_18_19 + 16 x_18_19
   + 16 x_18_19 + 16 x_18_19 + 16 x_18_19 + 16 x_18_19 + 16 x_18_19
   + 16 x_18_19 + 16 x_18_19 + 16 x_18_19 + 16 x_18_19 + 16 x_18_19
   + 16 x_18_19 + 16 x_18_19 + 16 x_18_19 + 16 x_18_19 + 16 x_18_19
   + 16 x_18_19 + 16 x_18_19 + 16 x_18_19 + 16 x_18_19 + 173 Constant
Subject To
 c_0: y_0 = 1
 c_1_0: y_0 >= 1
 c_1_1: y_1 >= 1
 c_1_2: y_2 >= 1
 c_1_3: y_3 >= 1
 c_1_4: y_4 >= 1
 c_1_5: y_5 >= 1
 c_1_6: y_6 >= 1
 c_1_7: y_7 >= 1
 c_1_8: y_8 + y_10 >= 1
 c_1_9: y_9 >= 1
 c_1_10: y_8 + y_10 + y_13 >= 1
 c_1_11: y_11 >= 1
 c_1_12: y_12 >= 1
 c_1_13: y_10 + y_13 >= 1
 c_1_14: y_14 >= 1
 c_1_15: y_15 >= 1
 c_1_16: y_16 >= 1
 c_1_17: y_17 >= 1
 c_1_18: y_18 >= 1
 c_1_19: y_19 >= 1
 c_2_0: - 2 y_0 + x_0_2 + x_0_5 + x_0_12 + x_0_16 + x_0_17 + x_0_18
   + x_0_19 = 0
 c_2_1: - 2 y_1 + x_1_3 + x_1_4 + x_1_5 + x_1_6 + x_1_7 + x_1_9 + x_1_11
   + x_1_13 + x_1_14 + x_1_15 + x_1_17 + x_1_19 = 0
 c_2_2: - 2 y_2 + x_0_2 + x_2_4 + x_2_5 + x_2_6 + x_2_8 + x_2_9 + x_2_10
   + x_2_11 + x_2_13 + x_2_18 = 0
 c_2_3: - 2 y_3 + x_1_3 + x_3_5 + x_3_7 + x_3_10 + x_3_11 + x_3_15 + x_3_16
   + x_3_19 = 0
 c_2_4: - 2 y_4 + x_1_4 + x_2_4 + x_4_5 + x_4_6 + x_4_9 + x_4_10 + x_4_11
   + x_4_15 + x_4_16 + x_4_17 + x_4_18 + x_4_19 = 0
 c_2_5: - 2 y_5 + x_0_5 + x_1_5 + x_2_5 + x_3_5 + x_4_5 + x_5_6 + x_5_7
   + x_5_8 + x_5_9 + x_5_10 + x_5_17 + x_5_18 = 0
 c_2_6: - 2 y_6 + x_1_6 + x_2_6 + x_4_6 + x_5_6 + x_6_12 + x_6_18 = 0
 c_2_7: - 2 y_7 + x_1_7 + x_3_7 + x_5_7 + x_7_9 + x_7_10 + x_7_16 + x_7_18
   + x_7_19 = 0
 c_2_8: - 2 y_8 + x_2_8 + x_5_8 + x_8_9 + x_8_10 + x_8_11 + x_8_15 + x_8_16
   + x_8_18 + x_8_19 = 0
 c_2_9: - 2 y_9 + x_1_9 + x_2_9 + x_4_9 + x_5_9 + x_7_9 + x_8_9 + x_9_10
   + x_9_12 + x_9_13 + x_9_15 + x_9_17 + x_9_19 = 0
 c_2_10: - 2 y_10 + x_2_10 + x_3_10 + x_4_10 + x_5_10 + x_7_10 + x_8_10
   + x_9_10 + x_10_12 + x_10_14 + x_10_16 + x_10_17 + x_10_18 + x_10_19
   = 0
 c_2_11: - 2 y_11 + x_1_11 + x_2_11 + x_3_11 + x_4_11 + x_8_11 + x_11_14
   + x_11_15 + x_11_16 + x_11_18 = 0
 c_2_12: - 2 y_12 + x_0_12 + x_6_12 + x_9_12 + x_10_12 + x_12_14 + x_12_15
   + x_12_18 = 0
 c_2_13: - 2 y_13 + x_1_13 + x_2_13 + x_9_13 + x_13_14 + x_13_17
   + 2 x_15_13 = 0
 c_2_14: - 2 y_14 + x_1_14 + x_10_14 + x_11_14 + x_12_14 + x_13_14
   + x_14_15 + x_14_16 = 0
 c_2_15: - 2 y_15 + x_1_15 + x_3_15 + x_4_15 + x_8_15 + x_9_15 + x_11_15
   + x_12_15 + x_14_15 + 2 x_15_13 + x_15_16 = 0
 c_2_16: - 2 y_16 + x_0_16 + x_3_16 + x_4_16 + x_7_16 + x_8_16 + x_10_16
   + x_11_16 + x_14_16 + x_15_16 + x_16_18 + x_16_19 = 0
 c_2_17: - 2 y_17 + x_0_17 + x_1_17 + x_4_17 + x_5_17 + x_9_17 + x_10_17
   + x_13_17 = 0
 c_2_18: - 2 y_18 + x_0_18 + x_2_18 + x_4_18 + x_5_18 + x_6_18 + x_7_18
   + x_8_18 + x_10_18 + x_11_18 + x_12_18 + x_16_18 + 859 x_18_19 = 0
 c_2_19: - 2 y_19 + x_0_19 + x_1_19 + x_3_19 + x_4_19 + x_7_19 + x_8_19
   + x_9_19 + x_10_19 + x_16_19 + 859 x_18_19 = 0
Bounds
 Constant = 1
Binaries
 y_0 y_1 y_2 y_3 y_4 y_5 y_6 y_7 y_8 y_9 y_10 y_11 y_12 y_13 y_14 y_15 y_16
 y_17 y_18 y_19 x_0_2 x_0_5 x_0_12 x_0_16 x_0_17 x_0_18 x_0_19 x_1_3 x_1_4
 x_1_5 x_1_6 x_1_7 x_1_9 x_1_11 x_1_13 x_1_14 x_1_15 x_1_17 x_1_19 x_2_4
 x_2_5 x_2_6 x_2_8 x_2_9 x_2_10 x_2_11 x_2_13 x_2_18 x_3_5 x_3_7 x_3_10
 x_3_11 x_3_15 x_3_16 x_3_19 x_4_5 x_4_6 x_4_9 x_4_10 x_4_11 x_4_15 x_4_16
 x_4_17 x_4_18 x_4_19 x_5_6 x_5_7 x_5_8 x_5_9 x_5_10 x_5_17 x_5_18 x_6_12
 x_6_18 x_7_9 x_7_10 x_7_16 x_7_18 x_7_19 x_8_9 x_8_10 x_8_11 x_8_15 x_8_16
 x_8_18 x_8_19 x_9_10 x_9_12 x_9_13 x_9_15 x_9_17 x_9_19 x_10_12 x_10_14
 x_10_16 x_10_17 x_10_18 x_10_19 x_11_14 x_11_15 x_11_16 x_11_18 x_12_14
 x_12_15 x_12_18 x_13_14 x_13_15 x_13_17 x_14_15 x_14_16 x_15_13 x_15_16
 x_16_18 x_16_19 x_18_19 x_18_19 x_18_19 x_18_19 x_18_19 x_18_19 x_18_19
 x_18_19 x_18_19 x_18_19 x_18_19 x_18_19 x_18_19 x_18_19 x_18_19 x_18_19
 x_18_19 x_18_19 x_18_19 x_18_19 x_18_19 x_18_19 x_18_19 x_18_19 x_18_19
 x_18_19 x_18_19 x_18_19 x_18_19 x_18_19 x_18_19 x_18_19 x_18_19 x_18_19
 x_18_19 x_18_19 x_18_19 x_18_19 x_18_19 x_18_19 x_18_19 x_18_19 x_18_19
 x_18_19 x_18_19 x_18_19 x_18_19 x_18_19 x_18_19 x_18_19 x_18_19 x_18_19
 x_18_19 x_18_19 x_18_19 x_18_19 x_18_19 x_18_19 x_18_19 x_18_19 x_18_19
 x_18_19 x_18_19 x_18_19 x_18_19 x_18_19 x_18_19 x_18_19 x_18_19 x_18_19
 x_18_19 x_18_19 x_18_19 x_18_19 x_18_19 x_18_19 x_18_19 x_18_19 x_18_19
 x_18_19 x_18_19 x_18_19 x_18_19 x_18_19 x_18_19 x_18_19 x_18_19 x_18_19
 x_18_19 x_18_19 x_18_19 x_18_19 x_18_19 x_18_19 x_18_19 x_18_19 x_18_19
 x_18_19 x_18_19 x_18_19 x_18_19 x_18_19 x_18_19 x_18_19 x_18_19 x_18_19
 x_18_19 x_18_19 x_18_19 x_18_19 x_18_19 x_18_19 x_18_19 x_18_19 x_18_19
 x_18_19 x_18_19 x_18_19 x_18_19 x_18_19 x_18_19 x_18_19 x_18_19 x_18_19
 x_18_19 x_18_19 x_18_19 x_18_19 x_18_19 x_18_19 x_18_19 x_18_19 x_18_19
 x_18_19 x_18_19 x_18_19 x_18_19 x_18_19 x_18_19 x_18_19 x_18_19 x_18_19
 x_18_19 x_18_19 x_18_19 x_18_19 x_18_19 x_18_19 x_18_19 x_18_19 x_18_19
 x_18_19 x_18_19 x_18_19 x_18_19 x_18_19 x_18_19 x_18_19 x_18_19 x_18_19
 x_18_19 x_18_19 x_18_19 x_18_19 x_18_19 x_18_19 x_18_19 x_18_19 x_18_19
 x_18_19 x_18_19 x_18_19 x_18_19 x_18_19 x_18_19 x_18_19 x_18_19 x_18_19
 x_18_19 x_18_19 x_18_19 x_18_19 x_18_19 x_18_19 x_18_19 x_18_19 x_18_19
 x_18_19 x_18_19 x_18_19 x_18_19 x_18_19 x_18_19 x_18_19 x_18_19 x_18_19
 x_18_19 x_18_19 x_18_19 x_18_19 x_18_19 x_18_19 x_18_19 x_18_19 x_18_19
 x_18_19 x_18_19 x_18_19 x_18_19 x_18_19 x_18_19 x_18_19 x_18_19 x_18_19
 x_18_19 x_18_19 x_18_19 x_18_19 x_18_19 x_18_19 x_18_19 x_18_19 x_18_19
 x_18_19 x_18_19 x_18_19 x_18_19 x_18_19 x_18_19 x_18_19 x_18_19 x_18_19
 x_18_19 x_18_19 x_18_19 x_18_19 x_18_19 x_18_19 x_18_19 x_18_19 x_18_19
 x_18_19 x_18_19 x_18_19 x_18_19 x_18_19 x_18_19 x_18_19 x_18_19 x_18_19
 x_18_19 x_18_19 x_18_19 x_18_19 x_18_19 x_18_19 x_18_19 x_18_19 x_18_19
 x_18_19 x_18_19 x_18_19 x_18_19 x_18_19 x_18_19 x_18_19 x_18_19 x_18_19
 x_18_19 x_18_19 x_18_19 x_18_19 x_18_19 x_18_19 x_18_19 x_18_19 x_18_19
 x_18_19 x_18_19 x_18_19 x_18_19 x_18_19 x_18_19 x_18_19 x_18_19 x_18_19
 x_18_19 x_18_19 x_18_19 x_18_19 x_18_19 x_18_19 x_18_19 x_18_19 x_18_19
 x_18_19 x_18_19 x_18_19 x_18_19 x_18_19 x_18_19 x_18_19 x_18_19 x_18_19
 x_18_19 x_18_19 x_18_19 x_18_19 x_18_19 x_18_19 x_18_19 x_18_19 x_18_19
 x_18_19 x_18_19 x_18_19 x_18_19 x_18_19 x_18_19 x_18_19 x_18_19 x_18_19
 x_18_19 x_18_19 x_18_19 x_18_19 x_18_19 x_18_19 x_18_19 x_18_19 x_18_19
 x_18_19 x_18_19 x_18_19 x_18_19 x_18_19 x_18_19 x_18_19 x_18_19 x_18_19
 x_18_19 x_18_19 x_18_19 x_18_19 x_18_19 x_18_19 x_18_19 x_18_19 x_18_19
 x_18_19 x_18_19 x_18_19 x_18_19 x_18_19 x_18_19 x_18_19 x_18_19 x_18_19
 x_18_19 x_18_19 x_18_19 x_18_19 x_18_19 x_18_19 x_18_19 x_18_19 x_18_19
 x_18_19 x_18_19 x_18_19 x_18_19 x_18_19 x_18_19 x_18_19 x_18_19 x_18_19
 x_18_19 x_18_19 x_18_19 x_18_19 x_18_19 x_18_19 x_18_19 x_18_19 x_18_19
 x_18_19 x_18_19 x_18_19 x_18_19 x_18_19 x_18_19 x_18_19 x_18_19 x_18_19
 x_18_19 x_18_19 x_18_19 x_18_19 x_18_19 x_18_19 x_18_19 x_18_19 x_18_19
 x_18_19 x_18_19 x_18_19 x_18_19 x_18_19 x_18_19 x_18_19 x_18_19 x_18_19
 x_18_19 x_18_19 x_18_19 x_18_19 x_18_19 x_18_19 x_18_19 x_18_19 x_18_19
 x_18_19 x_18_19 x_18_19 x_18_19 x_18_19 x_18_19 x_18_19 x_18_19 x_18_19
 x_18_19 x_18_19 x_18_19 x_18_19 x_18_19 x_18_19 x_18_19 x_18_19 x_18_19
 x_18_19 x_18_19 x_18_19 x_18_19 x_18_19 x_18_19 x_18_19 x_18_19 x_18_19
 x_18_19 x_18_19 x_18_19 x_18_19 x_18_19 x_18_19 x_18_19 x_18_19 x_18_19
 x_18_19 x_18_19 x_18_19 x_18_19 x_18_19 x_18_19 x_18_19 x_18_19 x_18_19
 x_18_19 x_18_19 x_18_19 x_18_19 x_18_19 x_18_19 x_18_19 x_18_19 x_18_19
 x_18_19 x_18_19 x_18_19 x_18_19 x_18_19 x_18_19 x_18_19 x_18_19 x_18_19
 x_18_19 x_18_19 x_18_19 x_18_19 x_18_19 x_18_19 x_18_19 x_18_19 x_18_19
 x_18_19 x_18_19 x_18_19 x_18_19 x_18_19 x_18_19 x_18_19 x_18_19 x_18_19
 x_18_19 x_18_19 x_18_19 x_18_19 x_18_19 x_18_19 x_18_19 x_18_19 x_18_19
 x_18_19 x_18_19 x_18_19 x_18_19 x_18_19 x_18_19 x_18_19 x_18_19 x_18_19
 x_18_19 x_18_19 x_18_19 x_18_19 x_18_19 x_18_19 x_18_19 x_18_19 x_18_19
 x_18_19 x_18_19 x_18_19 x_18_19 x_18_19 x_18_19 x_18_19 x_18_19 x_18_19
 x_18_19 x_18_19 x_18_19 x_18_19 x_18_19 x_18_19 x_18_19 x_18_19 x_18_19
 x_18_19 x_18_19 x_18_19 x_18_19 x_18_19 x_18_19 x_18_19 x_18_19 x_18_19
 x_18_19 x_18_19 x_18_19 x_18_19 x_18_19 x_18_19 x_18_19 x_18_19 x_18_19
 x_18_19 x_18_19 x_18_19 x_18_19 x_18_19 x_18_19 x_18_19 x_18_19 x_18_19
 x_18_19 x_18_19 x_18_19 x_18_19 x_18_19 x_18_19 x_18_19 x_18_19 x_18_19
 x_18_19 x_18_19 x_18_19 x_18_19 x_18_19 x_18_19 x_18_19 x_18_19 x_18_19
 x_18_19 x_18_19 x_18_19 x_18_19 x_18_19 x_18_19 x_18_19 x_18_19 x_18_19
 x_18_19 x_18_19 x_18_19 x_18_19 x_18_19 x_18_19 x_18_19 x_18_19 x_18_19
 x_18_19 x_18_19 x_18_19 x_18_19 x_18_19 x_18_19 x_18_19 x_18_19 x_18_19
 x_18_19 x_18_19 x_18_19 x_18_19 x_18_19 x_18_19 x_18_19 x_18_19 x_18_19
 x_18_19 x_18_19 x_18_19 x_18_19 x_18_19 x_18_19 x_18_19 x_18_19 x_18_19
 x_18_19 x_18_19 x_18_19 x_18_19 x_18_19 x_18_19 x_18_19 x_18_19 x_18_19
 x_18_19 x_18_19 x_18_19 x_18_19 x_18_19 x_18_19 x_18_19 x_18_19 x_18_19
 x_18_19 x_18_19 x_18_19 x_18_19 x_18_19 x_18_19 x_18_19 x_18_19 x_18_19
 x_18_19 x_18_19 x_18_19 x_18_19 x_18_19 x_18_19 x_18_19 x_18_19 x_18_19
 x_18_19 x_18_19 x_18_19 x_18_19 x_18_19 x_18_19 x_18_19 x_18_19 x_18_19
 x_18_19 x_18_19 x_18_19 x_18_19 x_18_19 x_18_19 x_18_19 x_18_19 x_18_19
 x_18_19 x_18_19 x_18_19 x_18_19 x_18_19 x_18_19 x_18_19 x_18_19 x_18_19
 x_18_19 x_18_19 x_18_19 x_18_19 x_18_19 x_18_19 x_18_19 x_18_19 x_18_19
 x_18_19 x_18_19 x_18_19 x_18_19 x_18_19 x_18_19 x_18_19 x_18_19 x_18_19
 x_18_19 x_18_19 x_18_19 x_18_19 x_18_19 x_18_19 x_18_19 x_18_19 x_18_19
 x_18_19 x_18_19 x_18_19 x_18_19 x_18_19 x_18_19 x_18_19 x_18_19 x_18_19
 x_18_19 x_18_19 x_18_19 x_18_19 x_18_19 x_18_19 x_18_19 x_18_19 x_18_19
 x_18_19 x_18_19 x_18_19 x_18_19 x_18_19 x_18_19 x_18_19 x_18_19 x_18_19
 x_18_19 x_18_19 x_18_19 x_18_19 x_18_19 x_18_19 x_18_19 x_18_19 x_18_19
 x_18_19 x_18_19 x_18_19 x_18_19 x_18_19 x_18_19 x_18_19 x_18_19 x_18_19
 x_18_19 x_18_19 x_18_19 x_18_19 x_18_19 x_18_19 x_18_19 x_18_19 x_18_19
 x_18_19 x_18_19 x_18_19 x_18_19 x_18_19 x_18_19 x_18_19 x_18_19 x_18_19
 x_18_19 x_18_19 x_18_19 x_18_19 x_18_19 x_18_19 x_18_19 x_18_19 x_18_19
 x_18_19 x_18_19 x_18_19 x_18_19 x_18_19 x_18_19 x_18_19 x_18_19 x_18_19
 x_18_19 x_18_19 x_18_19 x_18_19 x_18_19 x_18_19 x_18_19 x_18_19 x_18_19
 x_18_19 x_18_19 x_18_19 x_18_19 x_18_19 x_18_19 x_18_19 x_18_19 x_18_19
 x_18_19 x_18_19 x_18_19 x_18_19 x_18_19 x_18_19 x_18_19 x_18_19 x_18_19
 x_18_19 x_18_19 x_18_19 x_18_19 x_18_19 x_18_19 x_18_19 x_18_19 x_18_19
 x_18_19 x_18_19 x_18_19 x_18_19 x_18_19 x_18_19 x_18_19 x_18_19 x_18_19
 x_18_19 x_18_19 x_18_19 x_18_19 x_18_19 x_18_19
End
